12
66
0 1 25
0 2 82
0 3 33
0 4 59
0 5 91
0 6 40
0 7 129
0 8 91
0 9 82
0 10 37
0 11 35
1 2 91
1 3 42
1 4 68
1 5 66
1 6 25
1 7 138
1 8 66
1 9 91
1 10 46
1 11 44
2 3 49
2 4 23
2 5 49
2 6 66
2 7 47
2 8 85
2 9 2
2 10 45
2 11 47
3 4 26
3 5 80
3 6 29
3 7 96
3 8 80
3 9 49
3 10 8
3 11 10
4 5 72
4 6 43
4 7 70
4 8 72
4 9 23
4 10 22
4 11 24
5 6 51
5 7 74
5 8 58
5 9 51
5 10 72
5 11 90
6 7 113
6 8 51
6 9 66
6 10 21
6 11 39
7 8 132
7 9 47
7 10 92
7 11 94
8 9 85
8 10 72
8 11 90
9 10 45
9 11 47
10 11 18
